# Solution for model r10_t9_m3_1
# Finished Task: 9 / 9
# Makespan: 491.0, Total Distance: 494.0, Total Time: 0.0487
# R O S F
0 0 10 0.0 0.0
1 1 18 0.0 0.0
2 2 11 0.0 0.0
3 3 16 0.0 0.0
4 4 15 0.0 0.0
5 5 17 0.0 0.0
6 6 -1 0.0 0.0
7 7 -1 0.0 0.0
8 8 -1 0.0 0.0
9 9 -1 0.0 0.0
10 0 14 210.0 244.0
11 2 13 114.0 138.0
12 3 -1 415.0 444.0
13 2 -1 350.0 378.0
14 0 -1 387.0 415.0
15 4 -1 415.0 442.0
16 3 12 293.0 321.0
17 5 -1 415.0 435.0
18 1 -1 462.0 491.0
